========================================================== 
File name: C:\DEGR\assets\definitions\MSRCPSP_Gen\200_40_64_5_D.def
Creation date: Wed May 03 10:46:27 CEST 2023
Website: http://imopse.ii.pwr.edu.pl/ 
Reference: 
Myszkowski P. B., Skowronski M. E., Olech L., Oslizlo K., 
Hybrid Ant Colony Optimization in solving Multi-Skill Resource-Constrained Project Scheduling Problem, 
Soft Computing, DOI: DOI 10.1007/s00500-014-1455-x 
========================================================== 
General characteristics: 
Tasks: 200
Resources: 40
Precedence relations: 62
Number of skill types: 5
========================================================== 
ResourceID 	 Salary 	 Skills 
1	 	 	21.1	 	 Q1: 2 	  Q3: 3 	  Q2: 0 	 
2	 	 	97.0	 	 Q0: 2 	  Q2: 0 	  Q4: 3 	  Q3: 1 	 
3	 	 	90.1	 	 Q0: 1 	  Q4: 1 	 
4	 	 	21.1	 	 Q4: 1 	  Q0: 0 	 
5	 	 	33.0	 	 Q0: 3 	  Q2: 3 	  Q4: 3 	 
6	 	 	43.1	 	 Q3: 0 	  Q2: 0 	  Q1: 1 	  Q4: 3 	 
7	 	 	81.2	 	 Q1: 0 	  Q4: 3 	  Q2: 3 	  Q0: 0 	 
8	 	 	12.1	 	 Q3: 2 	  Q0: 2 	  Q1: 1 	 
9	 	 	77.8	 	 Q1: 1 	  Q0: 1 	  Q2: 0 	 
10	 	 	22.5	 	 Q1: 2 	  Q3: 2 	  Q4: 2 	  Q2: 3 	 
11	 	 	70.7	 	 Q4: 3 	  Q3: 3 	  Q1: 3 	  Q2: 3 	 
12	 	 	16.2	 	 Q4: 0 	 
13	 	 	28.7	 	 Q0: 2 	 
14	 	 	86.3	 	 Q2: 3 	  Q4: 0 	  Q3: 0 	  Q1: 3 	 
15	 	 	85.8	 	 Q4: 0 	 
16	 	 	79.2	 	 Q3: 2 	  Q4: 3 	  Q0: 2 	 
17	 	 	95.9	 	 Q1: 0 	  Q2: 1 	 
18	 	 	57.7	 	 Q3: 2 	  Q2: 3 	  Q4: 0 	  Q1: 2 	 
19	 	 	40.8	 	 Q2: 3 	  Q3: 1 	  Q4: 3 	  Q0: 3 	 
20	 	 	42.3	 	 Q1: 2 	  Q3: 3 	  Q0: 3 	 
21	 	 	74.5	 	 Q2: 1 	 
22	 	 	23.7	 	 Q4: 3 	 
23	 	 	88.8	 	 Q0: 2 	 
24	 	 	24.9	 	 Q3: 0 	 
25	 	 	79.1	 	 Q4: 2 	  Q1: 0 	 
26	 	 	32.2	 	 Q0: 1 	  Q4: 3 	  Q3: 0 	  Q2: 0 	 
27	 	 	32.8	 	 Q3: 2 	  Q0: 1 	  Q2: 2 	  Q1: 1 	 
28	 	 	54.3	 	 Q4: 3 	 
29	 	 	33.1	 	 Q4: 0 	  Q1: 2 	 
30	 	 	24.0	 	 Q0: 3 	  Q4: 0 	 
31	 	 	22.2	 	 Q1: 1 	 
32	 	 	92.7	 	 Q1: 2 	  Q3: 0 	 
33	 	 	72.5	 	 Q3: 2 	  Q4: 2 	  Q2: 1 	  Q1: 3 	 
34	 	 	75.3	 	 Q4: 0 	  Q1: 2 	  Q2: 1 	  Q0: 3 	 
35	 	 	28.9	 	 Q0: 2 	  Q3: 0 	 
36	 	 	100.0	 	 Q3: 2 	  Q1: 0 	  Q2: 3 	  Q0: 1 	 
37	 	 	98.0	 	 Q0: 2 	  Q4: 1 	 
38	 	 	86.0	 	 Q4: 0 	  Q0: 3 	 
39	 	 	28.8	 	 Q4: 1 	 
40	 	 	61.5	 	 Q4: 1 	  Q3: 3 	  Q2: 1 	 
========================================================== 
TaskID 	 Duration 	 Skill 	 Predecessor IDs 
1	11	Q1:	0
2	24	Q1:	0
3	21	Q3:	3
4	13	Q2:	3
5	30	Q3:	3
6	39	Q2:	1
7	11	Q4:	1
8	29	Q4:	1
9	25	Q3:	1
10	25	Q1:	1
11	32	Q2:	2
12	40	Q2:	0
13	35	Q4:	0
14	30	Q2:	0
15	34	Q3:	1
16	18	Q4:	1
17	22	Q1:	0
18	13	Q2:	1
19	9	Q2:	2
20	38	Q2:	0
21	24	Q1:	3
22	40	Q1:	2
23	23	Q0:	1
24	24	Q4:	1
25	17	Q4:	0
26	39	Q3:	1
27	32	Q0:	3
28	30	Q3:	0
29	10	Q1:	1
30	38	Q4:	2
31	19	Q3:	2
32	27	Q2:	0
33	30	Q2:	3
34	24	Q4:	1	11
35	9	Q1:	2
36	11	Q3:	0
37	20	Q4:	0
38	30	Q4:	3
39	13	Q2:	3
40	17	Q4:	2
41	37	Q0:	0
42	13	Q3:	2
43	13	Q1:	3
44	16	Q2:	0
45	25	Q4:	1
46	28	Q2:	1
47	22	Q3:	3	35
48	30	Q1:	2	39
49	39	Q4:	0
50	10	Q2:	3
51	29	Q3:	1	9
52	20	Q1:	2	31
53	33	Q0:	0	40
54	18	Q2:	3
55	14	Q1:	3
56	11	Q2:	3
57	36	Q4:	0
58	14	Q1:	1
59	34	Q2:	1
60	25	Q2:	0
61	19	Q0:	2
62	31	Q4:	3
63	39	Q2:	3
64	25	Q0:	1
65	34	Q0:	1	15
66	23	Q3:	3
67	14	Q0:	1
68	23	Q1:	1
69	21	Q0:	3
70	30	Q0:	1	23
71	22	Q3:	0
72	24	Q4:	2
73	39	Q4:	2
74	28	Q3:	2	12
75	14	Q4:	1
76	20	Q2:	0
77	9	Q4:	2	12
78	16	Q1:	3
79	37	Q2:	3
80	20	Q1:	3
81	28	Q3:	3
82	11	Q2:	0	38
83	40	Q1:	2
84	16	Q4:	0
85	37	Q2:	2	19
86	23	Q3:	0
87	25	Q0:	3
88	14	Q1:	1
89	15	Q3:	2
90	39	Q4:	1
91	21	Q1:	2
92	25	Q4:	3	62
93	30	Q2:	3
94	37	Q3:	3	92
95	27	Q2:	2
96	9	Q1:	3
97	15	Q4:	1	94	25
98	37	Q3:	0
99	14	Q4:	2	63
100	25	Q4:	2
101	22	Q0:	0
102	25	Q1:	1
103	12	Q1:	2
104	10	Q2:	0
105	20	Q2:	0	44
106	32	Q2:	3
107	10	Q1:	1
108	37	Q2:	2
109	33	Q3:	2
110	23	Q2:	1
111	15	Q4:	2
112	12	Q3:	3	66
113	37	Q1:	3	65
114	10	Q3:	2
115	31	Q3:	0
116	27	Q0:	2
117	27	Q3:	0
118	38	Q2:	3
119	30	Q1:	2	26	80
120	11	Q4:	0
121	37	Q1:	1	74
122	27	Q4:	3
123	39	Q2:	2	10	102
124	26	Q2:	2
125	14	Q0:	3
126	37	Q1:	0	119
127	17	Q0:	3	108
128	36	Q3:	2	90	32
129	29	Q4:	2
130	31	Q0:	0
131	14	Q0:	2	123
132	20	Q2:	1
133	17	Q0:	0
134	14	Q3:	1	48
135	24	Q0:	1
136	22	Q2:	3	43
137	33	Q4:	3
138	27	Q4:	0
139	11	Q3:	1
140	34	Q3:	0
141	30	Q1:	1	7
142	39	Q3:	1
143	18	Q0:	3
144	12	Q1:	3
145	30	Q3:	3
146	32	Q1:	1
147	27	Q4:	1
148	20	Q2:	3	118
149	40	Q0:	0
150	37	Q2:	1
151	38	Q3:	3
152	26	Q3:	0
153	18	Q2:	0
154	10	Q3:	3
155	38	Q0:	2	128
156	36	Q1:	2
157	37	Q4:	3	109	42
158	21	Q2:	1
159	25	Q4:	2
160	28	Q0:	0	30	65
161	15	Q1:	1
162	20	Q3:	2	37
163	15	Q4:	1
164	19	Q2:	0
165	39	Q2:	2
166	33	Q2:	1
167	16	Q3:	1
168	20	Q2:	3
169	40	Q2:	1	122
170	23	Q4:	2
171	38	Q0:	1
172	13	Q1:	0	22
173	29	Q0:	2	157
174	10	Q0:	0
175	29	Q0:	3	23
176	32	Q0:	0
177	30	Q3:	0
178	11	Q3:	1
179	19	Q3:	3	137	123	104
180	19	Q0:	1	39
181	34	Q0:	0	102
182	12	Q1:	3
183	30	Q2:	1	26
184	26	Q0:	0
185	25	Q4:	0	138
186	24	Q2:	3
187	15	Q2:	0	118	64	30
188	28	Q4:	2
189	29	Q2:	3	133	19	87
190	13	Q4:	2	100
191	39	Q3:	1
192	21	Q4:	3
193	36	Q1:	3	134	90
194	15	Q4:	0	136
195	9	Q1:	3
196	39	Q0:	1
197	39	Q1:	0
198	23	Q1:	2
199	29	Q0:	3	27
200	35	Q3:	3
========================================================== 